# Objective value = 328
V0_0 0
V0_1 0
V0_2 0
V0_3 0
V0_4 0
V0_5 1
V0_6 2
V0_7 3
V0_8 4
V0_9 5
V0_10 6
V0_11 7
V0_12 8
V0_13 9
V0_14 10
V0_15 9
V0_16 8
V0_17 7
V0_18 6
V0_19 5
V0_20 4
V0_21 3
V0_22 2
V0_23 1
f1_0 0
h1_0 0
V1_0 0
f1_1 0
h1_1 0
V1_1 0
f1_2 0
h1_2 0
V1_2 0
f1_3 0
h1_3 0
V1_3 0
f1_4 0
h1_4 0
V1_4 0
f1_5 0
h1_5 0
V1_5 1
f1_6 0
h1_6 0
V1_6 3
f1_7 1
h1_7 0
V1_7 2
f1_8 1
h1_8 0
V1_8 3
f1_9 1
h1_9 0
V1_9 5
f1_10 2
h1_10 0
V1_10 4
f1_11 2
h1_11 0
V1_11 4
f1_12 1
h1_12 0
V1_12 9
f1_13 2.9999999999999996e+00
h1_13 0
V1_13 6
f1_14 2
h1_14 1
V1_14 6
f1_15 0
h1_15 1
V1_15 9
f1_16 1
h1_16 0
V1_16 6
f1_17 0
h1_17 0
V1_17 9
f1_18 2
h1_18 0
V1_18 4
f1_19 1
h1_19 1
V1_19 3
f1_20 1
h1_20 0
V1_20 3
f1_21 1
h1_21 0
V1_21 2
f1_22 0
h1_22 1
V1_22 1
f1_23 0
h1_23 0
V1_23 1
f2_0 0
h2_0 0
V2_0 0
f2_1 0
h2_1 0
V2_1 0
f2_2 0
h2_2 0
V2_2 0
f2_3 0
h2_3 0
V2_3 0
f2_4 0
h2_4 0
V2_4 0
f2_5 0
h2_5 0
V2_5 1
f2_6 0
h2_6 0
V2_6 3
f2_7 0
h2_7 0
V2_7 2
f2_8 0
h2_8 0
V2_8 3
f2_9 0
h2_9 0
V2_9 6
f2_10 1
h2_10 0
V2_10 2
f2_11 0
h2_11 0
V2_11 6
f2_12 2
h2_12 0
V2_12 6.9999999999999991e+00
f2_13 2
h2_13 0
V2_13 3.9999999999999991e+00
f2_14 2
h2_14 0
V2_14 5
f2_15 3
h2_15 0
V2_15 5
f2_16 2
h2_16 0
V2_16 5
f2_17 3
h2_17 0
V2_17 4
f2_18 1
h2_18 0
V2_18 3
f2_19 1
h2_19 0
V2_19 1
f2_20 0
h2_20 0
V2_20 4
f2_21 0
h2_21 1
V2_21 1
f2_22 0
h2_22 0
V2_22 1
f2_23 0
h2_23 0
V2_23 1
f3_0 0
h3_0 0
V3_0 0
f3_1 0
h3_1 0
V3_1 0
f3_2 0
h3_2 0
V3_2 0
f3_3 0
h3_3 0
V3_3 0
f3_4 0
h3_4 0
V3_4 0
f3_5 0
h3_5 0
V3_5 1
f3_6 0
h3_6 0
V3_6 3
f3_7 0
h3_7 0
V3_7 3
f3_8 1
h3_8 0
V3_8 3
f3_9 2
h3_9 0
V3_9 2
f3_10 0
h3_10 0
V3_10 4
f3_11 2
h3_11 0
V3_11 4
f3_12 1.9999999999999998e+00
h3_12 0
V3_12 4
f3_13 1
h3_13 0
V3_13 3
f3_14 1
h3_14 0
V3_14 3
f3_15 0
h3_15 0
V3_15 6
f3_16 1
h3_16 0
V3_16 3.9999999999999996e+00
f3_17 1
h3_17 0
V3_17 3
f3_18 1
h3_18 0
V3_18 1
f3_19 0
h3_19 0
V3_19 2
f3_20 1
h3_20 0
V3_20 2
f3_21 0
h3_21 0
V3_21 1
f3_22 0
h3_22 0
V3_22 1
f3_23 0
h3_23 0
V3_23 1
f4_0 0
h4_0 0
V4_0 0
f4_1 0
h4_1 0
V4_1 0
f4_2 0
h4_2 0
V4_2 0
f4_3 0
h4_3 0
V4_3 0
f4_4 0
h4_4 0
V4_4 0
f4_5 0
h4_5 0
V4_5 2
f4_6 1
h4_6 0
V4_6 2
f4_7 1
h4_7 0
V4_7 1
f4_8 0
h4_8 0
V4_8 3
f4_9 0
h4_9 0
V4_9 3
f4_10 1
h4_10 0
V4_10 3
f4_11 1
h4_11 0
V4_11 3
f4_12 1
h4_12 0
V4_12 3
f4_13 1
h4_13 0
V4_13 2
f4_14 1
h4_14 0
V4_14 3
f4_15 2
h4_15 0
V4_15 3
f4_16 1
h4_16 0
V4_16 2.9999999999999996e+00
f4_17 1
h4_17 0
V4_17 1
f4_18 0
h4_18 0
V4_18 1
f4_19 0
h4_19 0
V4_19 3
f4_20 0
h4_20 1
V4_20 1
f4_21 0
h4_21 0
V4_21 1
f4_22 0
h4_22 0
V4_22 1
f4_23 0
h4_23 0
V4_23 1
f5_0 0
h5_0 0
V5_0 0
f5_1 0
h5_1 0
V5_1 0
f5_2 0
h5_2 0
V5_2 0
f5_3 0
h5_3 0
V5_3 0
f5_4 0
h5_4 0
V5_4 0
f5_5 0
h5_5 0
V5_5 2
f5_6 0
h5_6 0
V5_6 2
f5_7 0
h5_7 0
V5_7 2
f5_8 1
h5_8 0
V5_8 2
f5_9 1
h5_9 0
V5_9 2
f5_10 1
h5_10 0
V5_10 2
f5_11 1
h5_11 0
V5_11 2
f5_12 1
h5_12 0
V5_12 2
f5_13 0
h5_13 1
V5_13 2
f5_14 1
h5_14 0
V5_14 2
f5_15 1
h5_15 0
V5_15 2
f5_16 1
h5_16 0
V5_16 1
f5_17 0
h5_17 0
V5_17 1
f5_18 0
h5_18 0
V5_18 2
f5_19 1
h5_19 0
V5_19 1
f5_20 0
h5_20 0
V5_20 1
f5_21 0
h5_21 0
V5_21 1
f5_22 0
h5_22 0
V5_22 1
f5_23 0
h5_23 0
V5_23 1
x0_0 0
b0_0 0
x0_1 0
b0_1 0
x0_2 0
b0_2 1
x0_3 0
b0_3 0
x0_4 0
b0_4 0
x0_5 0
b0_5 0
x0_6 0
b0_6 0
x0_7 0
b0_7 0
x1_0 1
b1_0 0
x1_1 2
b1_1 1
x1_2 1
b1_2 1
x1_3 1
b1_3 0
x1_4 1
b1_4 0
x1_5 1
b1_5 0
x1_6 1
b1_6 0
x2_0 3
b2_0 1
x2_1 3
b2_1 1
x2_2 2
b2_2 1
x2_3 2
b2_3 0
x2_4 2
b2_4 0
x2_5 2
b2_5 0
x3_0 4
b3_0 1
x3_1 4
b3_1 1
x3_2 3
b3_2 1
x3_3 3
b3_3 0
x3_4 3
b3_4 0
x4_0 5
b4_0 1
x4_1 5
b4_1 1
x4_2 4
b4_2 1
x4_3 4
b4_3 0
x5_0 6
b5_0 1
x5_1 6
b5_1 1
x5_2 5
b5_2 1
x6_0 7
b6_0 1
x6_1 7
b6_1 1
x7_0 8
b7_0 1
d0_0 0
d0_1 0
d0_2 0
d0_3 0
d0_4 0
d0_5 0
d0_6 0
d0_7 0
d1_0 1
d1_1 1
d1_2 1
d1_3 1
d1_4 1
d1_5 1
d1_6 1
d2_0 2
d2_1 2
d2_2 2
d2_3 2
d2_4 2
d2_5 2
d3_0 2
d3_1 2
d3_2 2
d3_3 2
d3_4 2
d4_0 3
d4_1 3
d4_2 3
d4_3 3
d5_0 3
d5_1 3
d5_2 3
d6_0 3
d6_1 3
d7_0 3
sp0_0 -1
sp0_1 -1
sp0_2 -1
sp0_3 -1
sp0_4 -1
sp0_5 -1
sp0_6 -1
sp0_7 -1
sp1_0 0
sp1_1 1
sp1_2 2
sp1_3 3
sp1_4 4
sp1_5 5
sp1_6 6
sp2_0 1
sp2_1 1
sp2_2 2
sp2_3 4
sp2_4 5
sp2_5 6
sp3_0 1
sp3_1 2
sp3_2 3
sp3_3 4
sp3_4 5
sp4_0 1
sp4_1 4
sp4_2 3
sp4_3 3
sp5_0 3
sp5_1 2
sp5_2 3
sp6_0 2
sp6_1 4
sp7_0 3
obj0_0 0
obj0_1 0
obj0_2 0
obj0_3 0
obj0_4 0
obj0_5 0
obj0_6 0
obj0_7 0
obj1_0 11
obj1_1 12
obj1_2 11
obj1_3 11
obj1_4 11
obj1_5 11
obj1_6 11
obj2_0 23
obj2_1 23
obj2_2 22
obj2_3 22
obj2_4 22
obj2_5 22
obj3_0 24
obj3_1 24
obj3_2 23
obj3_3 23
obj3_4 23
obj4_0 35
obj4_1 35
obj4_2 34
obj4_3 34
obj5_0 36
obj5_1 36
obj5_2 35
obj6_0 37
obj6_1 37
obj7_0 38
addx1_0_0 0
tmpx1_0_0 1
tmpd1_0_0 0
addd1_0_0 0
delay1_0_0 1
tmpb1_0_0 1
tmp1_0_0 11
obj_tmp1_0_ 11
addx1_1_0 1
tmpx1_1_0 2
tmpd1_1_0 0
addd1_1_0 0
delay1_1_0 1
tmpb1_1_0 1
tmp1_1_0 12
obj_tmp1_1_ 12
addx1_2_0 0
tmpx1_2_0 1
tmpd1_2_0 0
addd1_2_0 0
delay1_2_0 1
tmpb1_2_0 1
tmp1_2_0 11
obj_tmp1_2_ 11
addx1_3_0 0
tmpx1_3_0 1
tmpd1_3_0 0
addd1_3_0 0
delay1_3_0 1
tmpb1_3_0 1
tmp1_3_0 11
obj_tmp1_3_ 11
addx1_4_0 0
tmpx1_4_0 1
tmpd1_4_0 0
addd1_4_0 0
delay1_4_0 1
tmpb1_4_0 1
tmp1_4_0 11
obj_tmp1_4_ 11
addx1_5_0 0
tmpx1_5_0 1
tmpd1_5_0 0
addd1_5_0 0
delay1_5_0 1
tmpb1_5_0 1
tmp1_5_0 11
obj_tmp1_5_ 11
addx1_6_0 0
tmpx1_6_0 1
tmpd1_6_0 0
addd1_6_0 0
delay1_6_0 1
tmpb1_6_0 1
tmp1_6_0 11
obj_tmp1_6_ 11
addx2_0_0 1
tmpx2_0_0 4
tmpd2_0_0 1
addd2_0_0 0
delay2_0_0 2
tmpb2_0_0 0
tmp2_0_0 24
addx2_0_1 1
tmpx2_0_1 3
tmpd2_0_1 1
addd2_0_1 0
delay2_0_1 2
tmpb2_0_1 1
tmp2_0_1 23
obj_tmp2_0_ 23
addx2_1_0 1
tmpx2_1_0 3
tmpd2_1_0 1
addd2_1_0 0
delay2_1_0 2
tmpb2_1_0 1
tmp2_1_0 23
addx2_1_1 0
tmpx2_1_1 3
tmpd2_1_1 1
addd2_1_1 0
delay2_1_1 2
tmpb2_1_1 0
tmp2_1_1 23
obj_tmp2_1_ 23
addx2_2_0 0
tmpx2_2_0 2
tmpd2_2_0 1
addd2_2_0 0
delay2_2_0 2
tmpb2_2_0 1
tmp2_2_0 22
addx2_2_1 0
tmpx2_2_1 2
tmpd2_2_1 1
addd2_2_1 0
delay2_2_1 2
tmpb2_2_1 0
tmp2_2_1 22
obj_tmp2_2_ 22
addx2_3_0 0
tmpx2_3_0 2
tmpd2_3_0 1
addd2_3_0 0
delay2_3_0 2
tmpb2_3_0 0
tmp2_3_0 22
addx2_3_1 0
tmpx2_3_1 2
tmpd2_3_1 1
addd2_3_1 0
delay2_3_1 2
tmpb2_3_1 1
tmp2_3_1 22
obj_tmp2_3_ 22
addx2_4_0 0
tmpx2_4_0 2
tmpd2_4_0 1
addd2_4_0 0
delay2_4_0 2
tmpb2_4_0 2.2204460492503131e-16
tmp2_4_0 22
addx2_4_1 0
tmpx2_4_1 2
tmpd2_4_1 1
addd2_4_1 0
delay2_4_1 2
tmpb2_4_1 9.9999999999999978e-01
tmp2_4_1 22
obj_tmp2_4_ 22
addx2_5_0 0
tmpx2_5_0 2
tmpd2_5_0 1
addd2_5_0 0
delay2_5_0 2
tmpb2_5_0 0
tmp2_5_0 22
addx2_5_1 0
tmpx2_5_1 2
tmpd2_5_1 1
addd2_5_1 0
delay2_5_1 2
tmpb2_5_1 1
tmp2_5_1 22
obj_tmp2_5_ 22
addx3_0_0 1
tmpx3_0_0 5
tmpd3_0_0 2
addd3_0_0 0
delay3_0_0 3
tmpb3_0_0 0
tmp3_0_0 35
addx3_0_1 1
tmpx3_0_1 4
tmpd3_0_1 1
addd3_0_1 0
delay3_0_1 2
tmpb3_0_1 1
tmp3_0_1 24
addx3_0_2 0
tmpx3_0_2 4
tmpd3_0_2 2
addd3_0_2 0
delay3_0_2 3
tmpb3_0_2 0
tmp3_0_2 34
obj_tmp3_0_ 24
addx3_1_0 1
tmpx3_1_0 4
tmpd3_1_0 2
addd3_1_0 0
delay3_1_0 3
tmpb3_1_0 0
tmp3_1_0 34
addx3_1_1 0
tmpx3_1_1 4
tmpd3_1_1 1
addd3_1_1 0
delay3_1_1 2
tmpb3_1_1 1
tmp3_1_1 24
addx3_1_2 0
tmpx3_1_2 4
tmpd3_1_2 2
addd3_1_2 0
delay3_1_2 3
tmpb3_1_2 0
tmp3_1_2 34
obj_tmp3_1_ 24
addx3_2_0 0
tmpx3_2_0 3
tmpd3_2_0 2
addd3_2_0 0
delay3_2_0 3
tmpb3_2_0 0
tmp3_2_0 33
addx3_2_1 0
tmpx3_2_1 3
tmpd3_2_1 1
addd3_2_1 0
delay3_2_1 2
tmpb3_2_1 1
tmp3_2_1 23
addx3_2_2 0
tmpx3_2_2 3
tmpd3_2_2 2
addd3_2_2 0
delay3_2_2 3
tmpb3_2_2 0
tmp3_2_2 33
obj_tmp3_2_ 23
addx3_3_0 0
tmpx3_3_0 3
tmpd3_3_0 2
addd3_3_0 0
delay3_3_0 3
tmpb3_3_0 0
tmp3_3_0 33
addx3_3_1 0
tmpx3_3_1 3
tmpd3_3_1 1
addd3_3_1 0
delay3_3_1 2
tmpb3_3_1 1
tmp3_3_1 23
addx3_3_2 0
tmpx3_3_2 3
tmpd3_3_2 2
addd3_3_2 0
delay3_3_2 3
tmpb3_3_2 0
tmp3_3_2 33
obj_tmp3_3_ 23
addx3_4_0 0
tmpx3_4_0 3
tmpd3_4_0 2
addd3_4_0 0
delay3_4_0 3
tmpb3_4_0 0
tmp3_4_0 33
addx3_4_1 0
tmpx3_4_1 3
tmpd3_4_1 1
addd3_4_1 0
delay3_4_1 2
tmpb3_4_1 1
tmp3_4_1 23
addx3_4_2 0
tmpx3_4_2 3
tmpd3_4_2 2
addd3_4_2 0
delay3_4_2 3
tmpb3_4_2 0
tmp3_4_2 33
obj_tmp3_4_ 23
addx4_0_0 1
tmpx4_0_0 6
tmpd4_0_0 2
addd4_0_0 0
delay4_0_0 3
tmpb4_0_0 0
tmp4_0_0 36
addx4_0_1 1
tmpx4_0_1 5
tmpd4_0_1 2
addd4_0_1 0
delay4_0_1 3
tmpb4_0_1 1
tmp4_0_1 35
addx4_0_2 0
tmpx4_0_2 5
tmpd4_0_2 2
addd4_0_2 0
delay4_0_2 3
tmpb4_0_2 0
tmp4_0_2 35
addx4_0_3 0
tmpx4_0_3 5
tmpd4_0_3 2
addd4_0_3 0
delay4_0_3 3
tmpb4_0_3 0
tmp4_0_3 35
obj_tmp4_0_ 35
addx4_1_0 1
tmpx4_1_0 5
tmpd4_1_0 2
addd4_1_0 0
delay4_1_0 3
tmpb4_1_0 0
tmp4_1_0 35
addx4_1_1 0
tmpx4_1_1 5
tmpd4_1_1 2
addd4_1_1 0
delay4_1_1 3
tmpb4_1_1 0
tmp4_1_1 35
addx4_1_2 0
tmpx4_1_2 5
tmpd4_1_2 2
addd4_1_2 0
delay4_1_2 3
tmpb4_1_2 0
tmp4_1_2 35
addx4_1_3 0
tmpx4_1_3 5
tmpd4_1_3 2
addd4_1_3 0
delay4_1_3 3
tmpb4_1_3 1
tmp4_1_3 35
obj_tmp4_1_ 35
addx4_2_0 0
tmpx4_2_0 4
tmpd4_2_0 2
addd4_2_0 0
delay4_2_0 3
tmpb4_2_0 0
tmp4_2_0 34
addx4_2_1 0
tmpx4_2_1 4
tmpd4_2_1 2
addd4_2_1 0
delay4_2_1 3
tmpb4_2_1 1
tmp4_2_1 34
addx4_2_2 0
tmpx4_2_2 4
tmpd4_2_2 2
addd4_2_2 0
delay4_2_2 3
tmpb4_2_2 0
tmp4_2_2 34
addx4_2_3 0
tmpx4_2_3 4
tmpd4_2_3 2
addd4_2_3 0
delay4_2_3 3
tmpb4_2_3 0
tmp4_2_3 34
obj_tmp4_2_ 34
addx4_3_0 0
tmpx4_3_0 4
tmpd4_3_0 2
addd4_3_0 0
delay4_3_0 3
tmpb4_3_0 1
tmp4_3_0 34
addx4_3_1 0
tmpx4_3_1 4
tmpd4_3_1 2
addd4_3_1 0
delay4_3_1 3
tmpb4_3_1 0
tmp4_3_1 34
addx4_3_2 0
tmpx4_3_2 4
tmpd4_3_2 2
addd4_3_2 0
delay4_3_2 3
tmpb4_3_2 0
tmp4_3_2 34
addx4_3_3 0
tmpx4_3_3 4
tmpd4_3_3 2
addd4_3_3 0
delay4_3_3 3
tmpb4_3_3 0
tmp4_3_3 34
obj_tmp4_3_ 34
addx5_0_0 1
tmpx5_0_0 7
tmpd5_0_0 3
addd5_0_0 0
delay5_0_0 4
tmpb5_0_0 0
tmp5_0_0 47
addx5_0_1 1
tmpx5_0_1 6
tmpd5_0_1 2
addd5_0_1 0
delay5_0_1 3
tmpb5_0_1 0
tmp5_0_1 36
addx5_0_2 0
tmpx5_0_2 6
tmpd5_0_2 2
addd5_0_2 0
delay5_0_2 3
tmpb5_0_2 0
tmp5_0_2 36
addx5_0_3 0
tmpx5_0_3 6
tmpd5_0_3 2
addd5_0_3 0
delay5_0_3 3
tmpb5_0_3 1
tmp5_0_3 36
addx5_0_4 0
tmpx5_0_4 6
tmpd5_0_4 3
addd5_0_4 0
delay5_0_4 4
tmpb5_0_4 0
tmp5_0_4 46
obj_tmp5_0_ 36
addx5_1_0 1
tmpx5_1_0 6
tmpd5_1_0 3
addd5_1_0 0
delay5_1_0 4
tmpb5_1_0 0
tmp5_1_0 46
addx5_1_1 0
tmpx5_1_1 6
tmpd5_1_1 2
addd5_1_1 0
delay5_1_1 3
tmpb5_1_1 1
tmp5_1_1 36
addx5_1_2 0
tmpx5_1_2 6
tmpd5_1_2 2
addd5_1_2 0
delay5_1_2 3
tmpb5_1_2 0
tmp5_1_2 36
addx5_1_3 0
tmpx5_1_3 6
tmpd5_1_3 2
addd5_1_3 0
delay5_1_3 3
tmpb5_1_3 0
tmp5_1_3 36
addx5_1_4 0
tmpx5_1_4 6
tmpd5_1_4 3
addd5_1_4 0
delay5_1_4 4
tmpb5_1_4 0
tmp5_1_4 46
obj_tmp5_1_ 36
addx5_2_0 0
tmpx5_2_0 5
tmpd5_2_0 3
addd5_2_0 0
delay5_2_0 4
tmpb5_2_0 0
tmp5_2_0 45
addx5_2_1 0
tmpx5_2_1 5
tmpd5_2_1 2
addd5_2_1 0
delay5_2_1 3
tmpb5_2_1 1
tmp5_2_1 35
addx5_2_2 0
tmpx5_2_2 5
tmpd5_2_2 2
addd5_2_2 0
delay5_2_2 3
tmpb5_2_2 0
tmp5_2_2 35
addx5_2_3 0
tmpx5_2_3 5
tmpd5_2_3 2
addd5_2_3 0
delay5_2_3 3
tmpb5_2_3 0
tmp5_2_3 35
addx5_2_4 0
tmpx5_2_4 5
tmpd5_2_4 3
addd5_2_4 0
delay5_2_4 4
tmpb5_2_4 0
tmp5_2_4 45
obj_tmp5_2_ 35
addx6_0_0 1
tmpx6_0_0 8
tmpd6_0_0 3
addd6_0_0 0
delay6_0_0 4
tmpb6_0_0 0
tmp6_0_0 48
addx6_0_1 1
tmpx6_0_1 7
tmpd6_0_1 3
addd6_0_1 0
delay6_0_1 4
tmpb6_0_1 0
tmp6_0_1 47
addx6_0_2 0
tmpx6_0_2 7
tmpd6_0_2 2
addd6_0_2 0
delay6_0_2 3
tmpb6_0_2 1
tmp6_0_2 37
addx6_0_3 0
tmpx6_0_3 7
tmpd6_0_3 2
addd6_0_3 0
delay6_0_3 3
tmpb6_0_3 0
tmp6_0_3 37
addx6_0_4 0
tmpx6_0_4 7
tmpd6_0_4 3
addd6_0_4 0
delay6_0_4 4
tmpb6_0_4 0
tmp6_0_4 47
addx6_0_5 0
tmpx6_0_5 7
tmpd6_0_5 3
addd6_0_5 0
delay6_0_5 4
tmpb6_0_5 0
tmp6_0_5 47
obj_tmp6_0_ 37
addx6_1_0 1
tmpx6_1_0 7
tmpd6_1_0 3
addd6_1_0 0
delay6_1_0 4
tmpb6_1_0 0
tmp6_1_0 47
addx6_1_1 0
tmpx6_1_1 7
tmpd6_1_1 3
addd6_1_1 0
delay6_1_1 4
tmpb6_1_1 0
tmp6_1_1 47
addx6_1_2 0
tmpx6_1_2 7
tmpd6_1_2 2
addd6_1_2 0
delay6_1_2 3
tmpb6_1_2 0
tmp6_1_2 37
addx6_1_3 0
tmpx6_1_3 7
tmpd6_1_3 2
addd6_1_3 0
delay6_1_3 3
tmpb6_1_3 1
tmp6_1_3 37
addx6_1_4 0
tmpx6_1_4 7
tmpd6_1_4 3
addd6_1_4 0
delay6_1_4 4
tmpb6_1_4 0
tmp6_1_4 47
addx6_1_5 0
tmpx6_1_5 7
tmpd6_1_5 3
addd6_1_5 0
delay6_1_5 4
tmpb6_1_5 0
tmp6_1_5 47
obj_tmp6_1_ 37
addx7_0_0 1
tmpx7_0_0 9
tmpd7_0_0 3
addd7_0_0 0
delay7_0_0 4
tmpb7_0_0 0
tmp7_0_0 49
addx7_0_1 1
tmpx7_0_1 8
tmpd7_0_1 3
addd7_0_1 0
delay7_0_1 4
tmpb7_0_1 0
tmp7_0_1 48
addx7_0_2 0
tmpx7_0_2 8
tmpd7_0_2 3
addd7_0_2 0
delay7_0_2 4
tmpb7_0_2 0
tmp7_0_2 48
addx7_0_3 0
tmpx7_0_3 8
tmpd7_0_3 2
addd7_0_3 0
delay7_0_3 3
tmpb7_0_3 1
tmp7_0_3 38
addx7_0_4 0
tmpx7_0_4 8
tmpd7_0_4 3
addd7_0_4 0
delay7_0_4 4
tmpb7_0_4 0
tmp7_0_4 48
addx7_0_5 0
tmpx7_0_5 8
tmpd7_0_5 3
addd7_0_5 0
delay7_0_5 4
tmpb7_0_5 0
tmp7_0_5 48
addx7_0_6 0
tmpx7_0_6 8
tmpd7_0_6 3
addd7_0_6 0
delay7_0_6 4
tmpb7_0_6 0
tmp7_0_6 48
obj_tmp7_0_ 38
hs 7
fs 69
